% File represents an instance of a Composite Structure problem to be solved by a CP framework
% Created on 2025-03-26 10:41:17.142
T = 52;
n = 9;
m = 12;
edges = [(1, 2),
(4, 5),
(7, 8),
(2, 3),
(6, 5),
(8, 9),
(4, 1),
(7, 4),
(5, 2),
(8, 5),
(6, 3),
(9, 6)];
counts = [|16, 8, 16, 6,
|16, 4, 16, 4,
|16, 2, 16, 4,
|16, 10, 16, 6,
|16, 6, 16, 4,
|16, 6, 16, 6,
|18, 10, 18, 6,
|16, 10, 16, 6,
|16, 8, 16, 6|];
